param n := 120;
param c := 10000
param : V : p w :=
   0	  16	 458
   1	   2	 252
   2	  95	 290
   3	  54	 497
   4	  29	 250
   5	  36	 253
   6	  36	 446
   7	  66	 276
   8	  15	 278
   9	  92	 387
  10	  57	 274
  11	  25	 339
  12	  41	 462
  13	  85	 268
  14	  79	 270
  15	  63	 472
  16	  50	 258
  17	  88	 270
  18	  60	 377
  19	  57	 276
  20	  15	 347
  21	  73	 484
  22	   4	 253
  23	  51	 263
  24	  13	 490
  25	  87	 252
  26	  54	 258
  27	   3	 414
  28	  99	 250
  29	  37	 336
  30	  79	 493
  31	  75	 253
  32	   7	 254
  33	  96	 470
  34	  11	 257
  35	  46	 273
  36	  92	 403
  37	  92	 262
  38	  34	 335
  39	  88	 433
  40	  50	 273
  41	  91	 294
  42	  40	 375
  43	  60	 276
  44	  53	 349
  45	  38	 422
  46	  39	 276
  47	  65	 302
  48	  17	 446
  49	  48	 274
  50	  46	 280
  51	  74	 352
  52	  64	 318
  53	  75	 330
  54	  24	 402
  55	  16	 269
  56	  92	 329
  57	  17	 436
  58	  90	 254
  59	  68	 310
  60	  14	 357
  61	  74	 268
  62	  37	 375
  63	  93	 410
  64	  33	 262
  65	  16	 328
  66	  82	 352
  67	  28	 275
  68	  22	 373
  69	  78	 423
  70	  38	 262
  71	  38	 315
  72	  85	 426
  73	  24	 266
  74	  59	 308
  75	  45	 388
  76	  49	 251
  77	  89	 361
  78	  67	 386
  79	   6	 272
  80	  36	 342
  81	  73	 374
  82	   9	 254
  83	  56	 372
  84	  77	 408
  85	  81	 287
  86	  75	 305
  87	  37	 442
  88	  37	 252
  89	  84	 306
  90	  48	 364
  91	  74	 302
  92	  26	 334
  93	  91	 363
  94	  87	 265
  95	  20	 372
  96	  56	 396
  97	   1	 292
  98	  25	 312
  99	  10	 485
 100	  31	 255
 101	   5	 260
 102	  72	 436
 103	  52	 256
 104	  64	 308
 105	  68	 445
 106	  87	 270
 107	  17	 285
 108	  42	 419
 109	  85	 275
 110	  57	 306
 111	  18	 427
 112	  57	 250
 113	  79	 323
 114	  42	 490
 115	  38	 252
 116	  67	 258
 117	  71	 496
 118	  23	 250
 119	   3	 254
;

set E :=
   0	  15
   0	  20
   0	  57
   0	  63
   0	  64
   0	  70
   0	  72
   0	  73
   0	  82
   0	 100
   0	 102
   0	 104
   0	 107
   0	 112
   0	 118
   1	   4
   1	  20
   1	  25
   1	  59
   1	  73
   1	  79
   1	  80
   1	  89
   1	  93
   1	 102
   1	 104
   1	 119
   2	  12
   2	  22
   2	  26
   2	  28
   2	  29
   2	  37
   2	  54
   2	  59
   2	  60
   2	  65
   2	  70
   2	  78
   2	  93
   2	  94
   2	 100
   2	 102
   2	 118
   3	  27
   3	  29
   3	  34
   3	  38
   3	  50
   3	  52
   3	  59
   3	  60
   3	  64
   3	  79
   3	  80
   3	  88
   3	  90
   3	 112
   4	  19
   4	  22
   4	  27
   4	  42
   4	  49
   4	  55
   4	  56
   4	  70
   4	  72
   4	  85
   4	  86
   4	 112
   4	 114
   5	  21
   5	  49
   5	  72
   5	  73
   5	  93
   5	 105
   5	 112
   6	  43
   6	  76
   6	  84
   6	 100
   6	 105
   6	 116
   7	  17
   7	  35
   7	  43
   7	  44
   7	  57
   7	  58
   7	  68
   7	  71
   7	  74
   7	  87
   7	  88
   7	  91
   7	  92
   7	  94
   7	 101
   8	  16
   8	  18
   8	  27
   8	  38
   8	  39
   8	  42
   8	  60
   8	  62
   8	  64
   8	  66
   8	  71
   8	  83
   8	 104
   8	 113
   8	 116
   9	  12
   9	  21
   9	  25
   9	  28
   9	  32
   9	  36
   9	  64
   9	  75
   9	  85
   9	  93
   9	 106
   9	 110
   9	 116
  10	  22
  10	  34
  10	  60
  10	  67
  10	  96
  10	 106
  10	 117
  10	 119
  11	  14
  11	  20
  11	  38
  11	  76
  11	  81
  11	  83
  11	  84
  11	 102
  11	 103
  11	 104
  11	 108
  12	  13
  12	  41
  12	  44
  12	  51
  12	  52
  12	  59
  12	  79
  12	  92
  12	  95
  12	 100
  12	 102
  12	 116
  12	 118
  13	  15
  13	  21
  13	  26
  13	  28
  13	  58
  13	  59
  13	  63
  13	  68
  13	  87
  13	  97
  13	 109
  14	  32
  14	  34
  14	  37
  14	  44
  14	  56
  14	  74
  14	 100
  14	 106
  15	  31
  15	  33
  15	  47
  15	  48
  15	  59
  15	  81
  15	  84
  15	  88
  15	  94
  15	  96
  15	 111
  16	  20
  16	  23
  16	  37
  16	  47
  16	  66
  16	  71
  16	  78
  16	  84
  16	  97
  16	 101
  16	 111
  17	  40
  17	  53
  17	  61
  17	  62
  17	  72
  17	  77
  17	  87
  17	  92
  17	  93
  17	  95
  17	  99
  17	 111
  18	  27
  18	  33
  18	  35
  18	  52
  18	  58
  18	  59
  18	  60
  18	  71
  18	  72
  18	  78
  18	  96
  18	 106
  18	 108
  19	  23
  19	  62
  19	  88
  19	 104
  19	 108
  20	  23
  20	  34
  20	  36
  20	  60
  20	  66
  20	  68
  20	  73
  20	  74
  20	  90
  20	  94
  20	  97
  20	 117
  21	  25
  21	  26
  21	  35
  21	  48
  21	  51
  21	  53
  21	  54
  21	  58
  21	  66
  21	  75
  21	 100
  21	 106
  21	 112
  22	  27
  22	  35
  22	  36
  22	  62
  22	  64
  22	  67
  22	  69
  22	  72
  22	  85
  22	 118
  23	  26
  23	  74
  23	  85
  23	  90
  23	  99
  23	 114
  24	  32
  24	  44
  24	  58
  24	  68
  24	  71
  24	  73
  24	  88
  24	 102
  24	 112
  25	  32
  25	  34
  25	  35
  25	  46
  25	  48
  25	  49
  25	  69
  25	  70
  25	  75
  25	  83
  25	 101
  25	 104
  25	 115
  26	  47
  26	  49
  26	  55
  26	  66
  26	  67
  26	  69
  26	  84
  26	  91
  26	 102
  26	 109
  27	  29
  27	  33
  27	  49
  27	  56
  27	  67
  27	  68
  27	  80
  27	  84
  27	 105
  27	 106
  27	 115
  27	 119
  28	  29
  28	  36
  28	  38
  28	  45
  28	  51
  28	  60
  28	  95
  28	 109
  28	 111
  29	  42
  29	  49
  29	  51
  29	  70
  29	  78
  29	  92
  29	 102
  29	 105
  29	 112
  29	 116
  30	  33
  30	  43
  30	  45
  30	  52
  30	  60
  30	  61
  30	  71
  30	  73
  30	  99
  30	 105
  31	  37
  31	  61
  31	  70
  31	 100
  31	 102
  31	 105
  31	 106
  31	 118
  32	  50
  32	  62
  32	  66
  32	  71
  32	  95
  32	 105
  32	 116
  33	  36
  33	  37
  33	  39
  33	  76
  33	  78
  33	  80
  33	  86
  33	  87
  33	 104
  34	  44
  34	  47
  34	  59
  34	  94
  34	 103
  34	 108
  34	 109
  34	 114
  34	 115
  35	  43
  35	  46
  35	  63
  35	  71
  35	  81
  35	  97
  36	  47
  36	  50
  36	  55
  36	  66
  36	  68
  36	  78
  36	  79
  36	 116
  37	  41
  37	  47
  37	  56
  37	  62
  37	  64
  37	  80
  37	  87
  37	  88
  37	  90
  37	  95
  37	 100
  37	 114
  38	  50
  38	  53
  38	  60
  38	  78
  38	  84
  38	  85
  38	  95
  38	 111
  39	  40
  39	  47
  39	  68
  39	  81
  39	  83
  39	 102
  39	 104
  40	  69
  40	  75
  40	  78
  40	  81
  40	  91
  40	  92
  40	  94
  40	  95
  40	 114
  40	 116
  41	  53
  41	  55
  41	  74
  41	  83
  41	  86
  41	 106
  41	 108
  41	 112
  42	  68
  42	  82
  42	 106
  42	 118
  43	  54
  43	  66
  43	 107
  44	  54
  44	  68
  44	  70
  44	 101
  44	 107
  45	  66
  45	  72
  45	  94
  45	 111
  46	  48
  46	  49
  46	  80
  46	  93
  46	 105
  46	 114
  47	  59
  47	  76
  47	  82
  47	  84
  47	  92
  47	  98
  47	 103
  47	 109
  47	 113
  47	 114
  48	  49
  48	  52
  48	  68
  48	  72
  48	  74
  48	 111
  48	 112
  49	  52
  49	  66
  49	  70
  49	  72
  49	  79
  49	  81
  49	  83
  49	  85
  49	  87
  49	 105
  49	 116
  50	  52
  50	  63
  50	  70
  50	  80
  50	  82
  50	  85
  50	  87
  50	  89
  50	 102
  51	  59
  51	  62
  51	  81
  51	  95
  51	  96
  51	 104
  51	 117
  51	 118
  52	  66
  52	  93
  52	  99
  52	 104
  52	 109
  53	  73
  53	  92
  53	 111
  53	 112
  53	 114
  53	 119
  54	  67
  54	  69
  54	  73
  54	  82
  54	  89
  55	  58
  55	  66
  55	  92
  55	  94
  55	  95
  55	 107
  56	  65
  56	  72
  56	  99
  56	 103
  56	 111
  57	  70
  57	  84
  57	  92
  57	  98
  57	 109
  57	 112
  58	  66
  58	  71
  58	  76
  58	  77
  58	  86
  58	  94
  58	  95
  58	 101
  59	 110
  59	 112
  60	  78
  60	  93
  60	  94
  60	 104
  61	  73
  61	  80
  61	 107
  61	 112
  61	 118
  62	  85
  62	  96
  62	 100
  62	 118
  63	  68
  63	  76
  63	  86
  63	  88
  63	  89
  63	 101
  63	 104
  63	 115
  63	 118
  64	  67
  64	  70
  64	  75
  64	  77
  64	  86
  64	  96
  64	 107
  65	  82
  65	 111
  65	 115
  66	  84
  66	  86
  66	 102
  66	 108
  66	 114
  67	  85
  67	 102
  67	 109
  67	 113
  68	  89
  68	  93
  68	  99
  68	 106
  68	 111
  68	 118
  69	  73
  69	  75
  69	  86
  69	  89
  69	 111
  69	 112
  69	 118
  70	  78
  70	  81
  70	  99
  70	 117
  71	  84
  71	  96
  71	 100
  72	  78
  72	 116
  73	  76
  73	  85
  73	  86
  73	  94
  73	  95
  73	 109
  73	 111
  74	  75
  74	  90
  74	 106
  74	 107
  74	 117
  75	  76
  75	  79
  75	  85
  75	  89
  75	  97
  75	 113
  76	  80
  76	  92
  76	 101
  77	  86
  77	 111
  77	 114
  77	 119
  78	  79
  78	  88
  78	  99
  78	 101
  79	  95
  79	 108
  80	  85
  80	  93
  80	 100
  80	 107
  81	  84
  81	 100
  81	 116
  82	  88
  82	  92
  82	  93
  82	  94
  82	 102
  82	 110
  83	  88
  84	  94
  85	  94
  85	 112
  86	  88
  86	 114
  87	 100
  87	 109
  88	  93
  89	  98
  89	 119
  90	  94
  90	 103
  90	 104
  90	 105
  90	 109
  91	  93
  91	  96
  91	  97
  91	 101
  91	 111
  91	 116
  92	  99
  92	 119
  93	  94
  93	  97
  93	 104
  93	 114
  93	 117
  94	 111
  95	  98
  95	 103
  95	 105
  96	 113
  96	 115
  96	 119
  97	  98
  98	  99
  98	 101
  98	 102
  98	 106
  98	 118
 100	 105
 100	 110
 100	 115
 101	 118
 101	 119
 102	 105
 102	 107
 102	 116
 103	 105
 103	 111
 104	 108
 104	 109
 105	 112
 105	 113
 105	 116
 105	 119
 107	 113
 107	 116
 108	 109
 108	 111
 108	 118
 109	 115
 114	 119
 115	 117
 116	 118
;
